presolving:
(round 1, fast)       603 del vars, 1271 del conss, 0 add conss, 600 chg bounds, 0 chg sides, 0 chg coeffs, 0 upgd conss, 0 impls, 530 clqs
(round 2, fast)       1208 del vars, 1272 del conss, 0 add conss, 600 chg bounds, 0 chg sides, 0 chg coeffs, 0 upgd conss, 0 impls, 530 clqs
   (0.0s) running MILP presolver
   (0.0s) MILP presolver (2 rounds): 0 aggregations, 21 fixings, 0 bound changes
(round 3, medium)     1229 del vars, 1272 del conss, 0 add conss, 600 chg bounds, 0 chg sides, 0 chg coeffs, 0 upgd conss, 0 impls, 530 clqs
(round 4, fast)       1230 del vars, 1273 del conss, 0 add conss, 600 chg bounds, 0 chg sides, 0 chg coeffs, 0 upgd conss, 0 impls, 529 clqs
(round 5, exhaustive) 1230 del vars, 1293 del conss, 0 add conss, 600 chg bounds, 20 chg sides, 0 chg coeffs, 0 upgd conss, 0 impls, 529 clqs
(round 6, exhaustive) 1230 del vars, 1293 del conss, 0 add conss, 600 chg bounds, 20 chg sides, 0 chg coeffs, 509 upgd conss, 0 impls, 529 clqs
(round 7, medium)     1268 del vars, 1293 del conss, 0 add conss, 600 chg bounds, 20 chg sides, 38 chg coeffs, 509 upgd conss, 0 impls, 529 clqs
(round 8, fast)       1271 del vars, 1294 del conss, 0 add conss, 600 chg bounds, 20 chg sides, 38 chg coeffs, 509 upgd conss, 0 impls, 528 clqs
(round 9, exhaustive) 1271 del vars, 1296 del conss, 0 add conss, 600 chg bounds, 20 chg sides, 38 chg coeffs, 509 upgd conss, 0 impls, 528 clqs
(round 10, exhaustive) 1274 del vars, 1296 del conss, 0 add conss, 600 chg bounds, 20 chg sides, 38 chg coeffs, 509 upgd conss, 0 impls, 525 clqs
(round 11, exhaustive) 1274 del vars, 1297 del conss, 0 add conss, 600 chg bounds, 20 chg sides, 38 chg coeffs, 509 upgd conss, 0 impls, 525 clqs
   (0.0s) probing: 51/526 (9.7%) - 0 fixings, 0 aggregations, 0 implications, 0 bound changes
   (0.0s) probing aborted: 50/50 successive totally useless probings
   (0.0s) symmetry computation started: requiring (bin +, int -, cont +), (fixed: bin -, int +, cont -)
   (0.0s) no symmetry present
presolving (12 rounds: 12 fast, 8 medium, 6 exhaustive):
 1274 deleted vars, 1297 deleted constraints, 0 added constraints, 600 tightened bounds, 0 added holes, 20 changed sides, 38 changed coefficients
 0 implications, 525 cliques
presolved problem has 526 variables (526 bin, 0 int, 0 impl, 0 cont) and 505 constraints
    505 constraints of type <setppc>
Presolving Time: 0.04

 time | node  | left  |LP iter|LP it/n|mem/heur|mdpt |vars |cons |rows |cuts |sepa|confs|strbr|  dualbound   | primalbound  |  gap   | compl. 
t 0.1s|     1 |     0 |     0 |     - | trivial|   0 | 526 | 505 |   0 |   0 |  0 |   0 |   0 | 4.550533e+06 | 1.296574e+05 |3409.66%| unknown
p 0.1s|     1 |     0 |     0 |     - |  clique|   0 | 526 | 505 | 505 |   0 |  0 |   0 |   0 | 4.550533e+06 | 5.097586e+05 | 792.68%| unknown
  0.5s|     1 |     0 |  5648 |     - |    12M |   0 | 526 | 505 | 505 |   0 |  0 |   0 |   0 | 7.132022e+05 | 5.097586e+05 |  39.91%| unknown
  0.6s|     1 |     0 |  5848 |     - |    15M |   0 | 526 | 505 | 507 |   2 |  1 |   0 |   0 | 7.104854e+05 | 5.097586e+05 |  39.38%| unknown
  0.7s|     1 |     0 |  6068 |     - |    18M |   0 | 526 | 505 | 511 |   6 |  2 |   0 |   0 | 7.078647e+05 | 5.097586e+05 |  38.86%| unknown
  0.8s|     1 |     0 |  6430 |     - |    21M |   0 | 526 | 505 | 516 |  11 |  3 |   0 |   0 | 7.058457e+05 | 5.097586e+05 |  38.47%| unknown
  1.0s|     1 |     0 |  6633 |     - |    22M |   0 | 526 | 505 | 522 |  17 |  4 |   0 |   0 | 7.044221e+05 | 5.097586e+05 |  38.19%| unknown
  1.1s|     1 |     0 |  6877 |     - |    26M |   0 | 526 | 505 | 526 |  21 |  5 |   0 |   0 | 7.034212e+05 | 5.097586e+05 |  37.99%| unknown
  1.2s|     1 |     0 |  6926 |     - |    28M |   0 | 526 | 505 | 529 |  24 |  6 |   0 |   0 | 7.032548e+05 | 5.097586e+05 |  37.96%| unknown
  1.4s|     1 |     0 |  7078 |     - |    34M |   0 | 526 | 505 | 532 |  27 |  7 |   0 |   0 | 7.029357e+05 | 5.097586e+05 |  37.90%| unknown
  1.6s|     1 |     0 |  7216 |     - |    36M |   0 | 526 | 505 | 534 |  29 |  8 |   0 |   0 | 7.026179e+05 | 5.097586e+05 |  37.83%| unknown
  1.7s|     1 |     0 |  7300 |     - |    39M |   0 | 526 | 505 | 536 |  31 |  9 |   0 |   0 | 7.024934e+05 | 5.097586e+05 |  37.81%| unknown
  1.9s|     1 |     0 |  7466 |     - |    42M |   0 | 526 | 505 | 538 |  33 | 10 |   0 |   0 | 7.023419e+05 | 5.097586e+05 |  37.78%| unknown
  2.0s|     1 |     0 |  7589 |     - |    42M |   0 | 526 | 505 | 544 |  39 | 11 |   0 |   0 | 7.022736e+05 | 5.097586e+05 |  37.77%| unknown
  2.0s|     1 |     0 |  7675 |     - |    42M |   0 | 526 | 505 | 548 |  43 | 12 |   0 |   0 | 7.021753e+05 | 5.097586e+05 |  37.75%| unknown
 time | node  | left  |LP iter|LP it/n|mem/heur|mdpt |vars |cons |rows |cuts |sepa|confs|strbr|  dualbound   | primalbound  |  gap   | compl. 
  2.1s|     1 |     0 |  7837 |     - |    42M |   0 | 526 | 505 | 557 |  52 | 13 |   0 |   0 | 7.017179e+05 | 5.097586e+05 |  37.66%| unknown
  2.2s|     1 |     0 |  7908 |     - |    42M |   0 | 526 | 505 | 563 |  58 | 14 |   0 |   0 | 7.013933e+05 | 5.097586e+05 |  37.59%| unknown
  2.3s|     1 |     0 |  7963 |     - |    42M |   0 | 526 | 505 | 567 |  62 | 15 |   0 |   0 | 7.011726e+05 | 5.097586e+05 |  37.55%| unknown
  2.3s|     1 |     0 |  8074 |     - |    43M |   0 | 526 | 505 | 571 |  66 | 16 |   0 |   0 | 7.007581e+05 | 5.097586e+05 |  37.47%| unknown
  2.4s|     1 |     0 |  8122 |     - |    43M |   0 | 526 | 505 | 573 |  68 | 17 |   0 |   0 | 7.006684e+05 | 5.097586e+05 |  37.45%| unknown
  2.5s|     1 |     0 |  8177 |     - |    43M |   0 | 526 | 505 | 576 |  71 | 18 |   0 |   0 | 7.005959e+05 | 5.097586e+05 |  37.44%| unknown
  2.6s|     1 |     0 |  8251 |     - |    43M |   0 | 526 | 505 | 580 |  75 | 19 |   0 |   0 | 7.004674e+05 | 5.097586e+05 |  37.41%| unknown
  2.6s|     1 |     0 |  8326 |     - |    43M |   0 | 526 | 505 | 582 |  77 | 20 |   0 |   0 | 7.002287e+05 | 5.097586e+05 |  37.36%| unknown
  2.7s|     1 |     0 |  8341 |     - |    43M |   0 | 526 | 505 | 585 |  80 | 22 |   0 |   0 | 7.001975e+05 | 5.097586e+05 |  37.36%| unknown
d 3.0s|     1 |     0 | 11532 |     - |farkasdi|   0 | 526 | 505 | 585 |   0 | 24 |   0 |   0 | 7.001975e+05 | 5.999637e+05 |  16.71%| unknown
L 5.3s|     1 |     0 | 11532 |     - |    rens|   0 | 526 | 505 | 585 |  80 | 24 |   0 |   0 | 7.001975e+05 | 6.404378e+05 |   9.33%| unknown
  5.3s|     1 |     0 | 11532 |     - |    43M |   0 | 526 | 505 | 585 |  80 | 24 |   0 |   0 | 7.001975e+05 | 6.404378e+05 |   9.33%| unknown
i 5.3s|     1 |     0 | 11532 |     - |  oneopt|   0 | 526 | 505 | 585 |  80 | 24 |   0 |   0 | 7.001975e+05 | 6.411929e+05 |   9.20%| unknown
  5.4s|     1 |     0 | 11542 |     - |    43M |   0 | 526 | 505 | 587 |  82 | 25 |   0 |   0 | 7.001889e+05 | 6.411929e+05 |   9.20%| unknown
  6.6s|     1 |     2 | 11542 |     - |    43M |   0 | 526 | 505 | 587 |  82 | 26 |   0 |  19 | 6.970844e+05 | 6.411929e+05 |   8.72%| unknown
 time | node  | left  |LP iter|LP it/n|mem/heur|mdpt |vars |cons |rows |cuts |sepa|confs|strbr|  dualbound   | primalbound  |  gap   | compl. 
*15.8s|    33 |     9 | 19410 | 354.2 |    LP  |  12 | 526 | 537 | 560 | 105 |  3 |  32 | 490 | 6.949884e+05 | 6.487586e+05 |   7.13%|  10.66%
*15.8s|    34 |     8 | 19421 | 343.8 |    LP  |  12 | 526 | 537 | 559 | 105 |  1 |  32 | 490 | 6.949884e+05 | 6.513340e+05 |   6.70%|  10.70%
 16.7s|   100 |    12 | 27112 | 192.3 |    56M |  14 | 526 | 537 | 566 | 133 |  1 |  32 | 490 | 6.949353e+05 | 6.513340e+05 |   6.69%|  21.83%
 18.9s|   200 |    10 | 41791 | 169.4 |    64M |  15 | 526 | 556 | 557 | 182 |  0 |  51 | 522 | 6.924138e+05 | 6.513340e+05 |   6.31%|  34.77%
 21.0s|   300 |    14 | 56967 | 163.5 |    67M |  21 | 526 | 556 | 557 | 213 |  1 |  51 | 544 | 6.885916e+05 | 6.513340e+05 |   5.72%|  37.61%
 24.3s|   400 |    20 | 75496 | 169.0 |    71M |  21 | 526 | 572 | 568 | 301 |  1 |  67 | 584 | 6.865476e+05 | 6.513340e+05 |   5.41%|  38.94%
 27.8s|   500 |    26 | 93669 | 171.5 |    76M |  21 | 526 | 581 | 559 | 370 |  0 |  76 | 611 | 6.821531e+05 | 6.513340e+05 |   4.73%|  43.15%
 29.9s|   600 |    42 |111020 | 171.9 |    77M |  22 | 526 | 594 | 567 | 401 |  0 |  89 | 638 | 6.812637e+05 | 6.513340e+05 |   4.60%|  48.95%
 32.4s|   700 |    48 |128644 | 172.5 |    77M |  25 | 526 | 603 | 564 | 432 |  1 |  98 | 675 | 6.783004e+05 | 6.513340e+05 |   4.14%|  55.72%
 34.8s|   800 |    46 |143919 | 170.0 |    78M |  25 | 526 | 615 | 557 | 479 |  1 | 110 | 720 | 6.774618e+05 | 6.513340e+05 |   4.01%|  59.85%
 36.6s|   900 |    40 |160510 | 169.6 |    78M |  25 | 526 | 645 | 568 | 497 |  1 | 140 | 777 | 6.748989e+05 | 6.513340e+05 |   3.62%|  69.56%
 37.9s|  1000 |    36 |170980 | 163.1 |    78M |  26 | 526 | 675 | 569 | 510 |  0 | 170 | 822 | 6.747302e+05 | 6.513340e+05 |   3.59%|  69.74%
 39.9s|  1100 |    42 |188408 | 164.1 |    79M |  26 | 526 | 691 | 569 | 532 |  0 | 186 | 866 | 6.737602e+05 | 6.513340e+05 |   3.44%|  71.52%
 41.8s|  1200 |    36 |204926 | 164.2 |    79M |  26 | 526 | 722 | 567 | 544 |  0 | 217 | 930 | 6.722345e+05 | 6.513340e+05 |   3.21%|  72.17%
 43.8s|  1300 |    30 |221996 | 164.7 |    79M |  26 | 526 | 745 | 568 | 565 |  0 | 240 | 987 | 6.722345e+05 | 6.513340e+05 |   3.21%|  72.92%
 time | node  | left  |LP iter|LP it/n|mem/heur|mdpt |vars |cons |rows |cuts |sepa|confs|strbr|  dualbound   | primalbound  |  gap   | compl. 
 45.9s|  1400 |    26 |238200 | 164.5 |    79M |  26 | 526 | 775 | 560 | 599 |  0 | 270 |1060 | 6.678555e+05 | 6.513340e+05 |   2.54%|  78.39%
 48.0s|  1500 |    18 |253185 | 163.5 |    79M |  27 | 526 | 802 | 567 | 635 |  0 | 297 |1115 | 6.628207e+05 | 6.513340e+05 |   1.76%|  89.38%

SCIP Status        : problem is solved [optimal solution found]
Solving Time (sec) : 49.70
Solving Nodes      : 1584
Primal Bound       : +6.51334032888830e+05 (544 solutions)
Dual Bound         : +6.51334032888830e+05
Gap                : 0.00 %
Solve Status: optimal
Solve Time: 49.70 seconds
